LengthSchedulingHorizon=1088;
nAttributes=2;
SetupCosts=[[0, 0], [2, 0], [0, 1]];
SetupTimes=[[0, 0], [2, 0], [0, 1]];
nMachines=2;
MinCap=[0, 0];
MaxCap=[84, 21];

initState=[2, 1];
nShifts=5;
ShiftStartTimes = [[116, 140, 200, 415, 895], [0, 0, 0, 59, 280]];
ShiftEndTimes = [[139, 188, 413, 841, 1088], [0, 0, 0, 270, 1028]];
nJobs=100;
EligibleMachines = [{1, 2}, {1, 2}, {1}, {2}, {1}, {1}, {2}, {1}, {1}, {2}, {1}, {2}, {1}, {1}, {1, 2}, {2}, {2}, {1}, {1}, {2}, {1}, {1}, {2}, {1, 2}, {2}, {1, 2}, {1}, {2}, {2}, {2}, {1, 2}, {1}, {1, 2}, {1}, {1}, {1}, {1}, {1}, {1}, {2}, {1, 2}, {2}, {1, 2}, {1, 2}, {1}, {2}, {1}, {2}, {2}, {1}, {1}, {1}, {1, 2}, {1, 2}, {1, 2}, {2}, {2}, {1, 2}, {1}, {2}, {1}, {1}, {2}, {1, 2}, {1}, {2}, {1}, {2}, {1}, {1, 2}, {1}, {2}, {2}, {2}, {2}, {1, 2}, {1}, {1, 2}, {2}, {2}, {2}, {2}, {2}, {1}, {1}, {1}, {2}, {2}, {1}, {1}, {1}, {2}, {2}, {2}, {1}, {1}, {2}, {2}, {1}, {2}];
EarliestStart=[38, 9, 28, 49, 45, 52, 53, 14, 52, 53, 23, 11, 30, 3, 48, 24, 19, 40, 57, 51, 34, 38, 4, 42, 2, 46, 53, 36, 30, 30, 25, 29, 32, 21, 48, 31, 37, 32, 29, 22, 37, 39, 5, 50, 1, 28, 56, 42, 35, 25, 51, 33, 3, 45, 38, 10, 50, 15, 14, 57, 0, 1, 36, 37, 13, 11, 57, 48, 32, 10, 45, 17, 46, 2, 21, 34, 48, 17, 56, 30, 28, 13, 9, 34, 40, 58, 44, 15, 17, 13, 45, 47, 9, 44, 57, 46, 44, 7, 2, 4];
LatestEnd=[48, 10, 31, 62, 79, 78, 73, 28, 54, 72, 36, 51, 56, 41, 68, 30, 26, 49, 83, 53, 48, 70, 7, 58, 33, 63, 67, 51, 46, 46, 49, 36, 51, 37, 61, 44, 56, 63, 41, 27, 56, 49, 41, 84, 21, 43, 95, 66, 55, 49, 58, 46, 31, 52, 42, 30, 56, 24, 52, 60, 10, 13, 71, 63, 43, 37, 66, 77, 53, 18, 49, 29, 70, 22, 65, 39, 53, 18, 77, 34, 37, 23, 14, 48, 54, 63, 47, 18, 22, 27, 81, 89, 31, 46, 68, 48, 63, 24, 3, 7];
MinTime=[10, 1, 1, 6, 9, 8, 10, 6, 1, 4, 3, 10, 8, 9, 9, 4, 3, 2, 10, 2, 3, 9, 3, 6, 10, 10, 3, 10, 5, 8, 7, 3, 4, 4, 10, 3, 6, 8, 3, 3, 6, 10, 8, 8, 5, 7, 10, 5, 8, 10, 2, 3, 8, 3, 4, 8, 4, 8, 9, 1, 6, 6, 10, 7, 10, 10, 5, 6, 6, 3, 3, 10, 6, 6, 9, 4, 4, 1, 8, 2, 3, 3, 3, 4, 10, 2, 1, 1, 2, 8, 9, 10, 6, 1, 5, 2, 10, 6, 1, 2];
MaxTime=[10, 10, 10, 10, 10, 10, 10, 10, 10, 10, 10, 10, 10, 10, 10, 10, 10, 10, 10, 10, 10, 10, 10, 10, 10, 10, 10, 10, 10, 10, 10, 10, 10, 10, 10, 10, 10, 10, 10, 10, 10, 10, 10, 10, 10, 10, 10, 10, 10, 10, 10, 10, 10, 10, 10, 10, 10, 10, 10, 10, 10, 10, 10, 10, 10, 10, 10, 10, 10, 10, 10, 10, 10, 10, 10, 10, 10, 10, 10, 10, 10, 10, 10, 10, 10, 10, 10, 10, 10, 10, 10, 10, 10, 10, 10, 10, 10, 10, 10, 10];
JobSize=[1, 5, 11, 9, 18, 17, 17, 4, 17, 9, 18, 3, 12, 1, 13, 5, 10, 3, 19, 7, 11, 8, 17, 9, 4, 3, 7, 18, 5, 8, 5, 2, 3, 20, 16, 9, 20, 7, 12, 13, 20, 12, 20, 3, 4, 11, 1, 7, 13, 20, 3, 8, 4, 9, 12, 13, 11, 20, 9, 2, 4, 2, 16, 1, 3, 11, 6, 6, 18, 10, 1, 9, 17, 4, 12, 13, 18, 5, 15, 9, 6, 20, 16, 17, 14, 4, 2, 12, 3, 11, 12, 12, 10, 2, 14, 17, 7, 7, 12, 16];
Attribute=[1, 2, 1, 1, 2, 2, 1, 1, 2, 2, 1, 2, 1, 1, 1, 1, 2, 1, 2, 2, 2, 1, 2, 1, 1, 2, 2, 2, 1, 1, 1, 1, 2, 2, 1, 2, 1, 1, 1, 1, 1, 2, 2, 1, 1, 1, 1, 2, 2, 2, 1, 1, 1, 1, 2, 1, 2, 1, 1, 2, 2, 2, 1, 2, 2, 1, 1, 1, 1, 2, 1, 1, 2, 2, 1, 1, 1, 2, 2, 1, 1, 2, 2, 1, 1, 2, 1, 2, 2, 1, 2, 1, 2, 2, 1, 2, 2, 2, 2, 1];

upper_bound_integer_objective=3000;
mult_factor_total_runtime=2;
mult_factor_finished_toolate=12;
mult_factor_total_setuptimes=0;
mult_factor_total_setupcosts=3;
running_time_bound=572;
min_duration=1;
max_duration=10;
max_setup_time=2;
max_setup_cost=2;
